p cnf 96
-3 -28
-4 -31
-5 -33
-6 -35
-7 36
-8 -3
-8 4
3 -4 8
-9 3
-9 -4
-3 4 9
-10 -8
-10 -9
8 9 10
-11 -1
-11 -2
1 2 11
-12 -5
-12 -6
5 6 12
-13 5
-13 -10
-5 10 13
-14 -5
-14 10
5 -10 14
-15 -13
-15 -14
13 14 15
-16 3
-16 6
-3 -6 16
-17 -3
-17 -6
3 6 17
-18 -16
-18 -17
16 17 18
-19 -15
-19 -18
15 18 19
-20 -12
-20 19
12 -19 20
-21 7
-21 20
-7 -20 21
-22 11
-22 21
-11 -21 22
-23 -3
-23 10
3 -10 23
-24 -12
-24 23
12 -23 24
-25 11
-25 -20
-11 20 25
-26 1
-26 -11
-1 11 26
-27 -10
-27 11
10 -11 27
-28 -26
-28 -27
26 27 28
-29 2
-29 -11
-2 11 29
-30 3
-30 11
-3 -11 30
-31 -29
-31 -30
29 30 31
-32 5
-32 11
-5 -11 32
-33 -26
-33 -32
26 32 33
-34 6
-34 11
-6 -11 34
-35 -29
-35 -34
29 34 35
-36 -7
-36 25
7 -25 36
-37 -22
-37 -24
22 24 37
-37
